&name
PSI4 H2 experiment
&end

&driver
   name=PSI4
&end

&psi4
molecule h2 {
   0 1
   H  0.0 0.0 -0.3675
   H  0.0 0.0  0.3675
}

set {
  basis sto-3g
  scf_type pk
}
&end

&operator
   name=hamiltonian
   qubit_mapping=parity
&end

&algorithm
   name=VQE
   operator_mode=matrix
&end

&optimizer
   name=L_BFGS_B
   factr=10
&end

&variational_form
   name=RYRZ
&end

&backend
   provider=qiskit.BasicAer
   name=statevector_simulator
&end
